\ This file has been generated by DOcplex
\ ENCODING=ISO-8859-1
\Problem name: dectiger problem

Minimize
 obj: V
Subject To
 c1: V + 162.577343750000 a1_u0_x0 + 218.625000000000 a1_u1_x0
     + 163.625000000000 a1_u2_x0 + 133.078906250000 a1_u0_x1
     + 127.375000000000 a1_u1_x1 + 182.375000000000 a1_u2_x1 >= 0
 c2: V + 218.625000000000 a1_u0_x0 + 193.125000000000 a1_u1_x0
     + 218.125000000000 a1_u2_x0 + 127.375000000000 a1_u0_x1
     + 121.875000000000 a1_u1_x1 + 181.875000000000 a1_u2_x1 >= 0
 c3: V + 163.625000000000 a1_u0_x0 + 218.125000000000 a1_u1_x0
     + 158.125000000000 a1_u2_x0 + 182.375000000000 a1_u0_x1
     + 181.875000000000 a1_u1_x1 + 156.875000000000 a1_u2_x1 >= 0
 c4: a1_u0_x0 + a1_u1_x0 + a1_u2_x0 = 1
 c5: a1_u0_x1 + a1_u1_x1 + a1_u2_x1 = 1

Bounds
       V Free
End
